360
50
13 35
25 3
15 5
31 10
82 20
13 16
89 8
67 29
23 27
7 46
10 15
51 10
5 6
51 6
82 71
32 35
71 43
15 25
43 10
100 100
38 35
23 33
65 15
35 20
5 20
63 9
75 18
56 50
42 2
47 3
45 46
55 34
65 25
61 15
67 10
1 31
45 20
13 15
9 17
1 27
13 15
21 31
15 25
31 12
12 23
31 64
80 52
28 46
39 29
78 250
